instances/shortest_path/discrete_knapsack_uncertainty/nohadani_3_20.lp
\ Model nohadani_3_20
\ LP format - for model browsing. Use MPS format to capture full model detail.
\ Signature: 0xf9a0f44b955a6a9b
Minimize
  32.89376840679705 y[0,1] + 3 y[0,2] + 32.89376840679705 y[1,0]
   + 34.0147027033899 y[1,2] + 3 y[2,0] + 34.0147027033899 y[2,1] + x[0,1]
   + x[0,2] + x[1,0] + x[1,2] + x[2,0] + x[2,1] + 3.289376840679705 r[0,1]
   + 0.3 r[0,2] + 3.289376840679705 r[1,0] + 3.40147027033899 r[1,2]
   + 0.3 r[2,0] + 3.40147027033899 r[2,1]
Subject To
 flow_cons_inner_nodes[0]: - y[0,1] - y[0,2] + y[1,0] + y[2,0] = 0
 flow_cons_source: - y[0,1] + y[1,0] + y[1,2] - y[2,1] = 1
 flow_cons_target: y[0,2] + y[1,2] - y[2,0] - y[2,1] = 1
 primal_lower: 0.5511269133210572 x[0,1] + 4.032775354565961 x[0,2]
   + 7.104168072143379 x[1,0] + 7.953276363283332 x[1,2]
   + 10.59163819463048 x[2,0] + 11.83526930261125 x[2,1] + 45 u[0,1]
   + 97 u[0,2] + 11 u[1,0] + 16 u[1,2] + 17 u[2,0] + 3 u[2,1] <= 97
 mccormick1[0,1]: - u[0,1] + r[0,1] <= 0
 mccormick1[0,2]: - u[0,2] + r[0,2] <= 0
 mccormick1[1,0]: - u[1,0] + r[1,0] <= 0
 mccormick1[1,2]: - u[1,2] + r[1,2] <= 0
 mccormick1[2,0]: - u[2,0] + r[2,0] <= 0
 mccormick1[2,1]: - u[2,1] + r[2,1] <= 0
 mccormick2[0,1]: - y[0,1] + r[0,1] <= 0
 mccormick2[0,2]: - y[0,2] + r[0,2] <= 0
 mccormick2[1,0]: - y[1,0] + r[1,0] <= 0
 mccormick2[1,2]: - y[1,2] + r[1,2] <= 0
 mccormick2[2,0]: - y[2,0] + r[2,0] <= 0
 mccormick2[2,1]: - y[2,1] + r[2,1] <= 0
 mccormick3[0,1]: - y[0,1] - u[0,1] + r[0,1] >= -1
 mccormick3[0,2]: - y[0,2] - u[0,2] + r[0,2] >= -1
 mccormick3[1,0]: - y[1,0] - u[1,0] + r[1,0] >= -1
 mccormick3[1,2]: - y[1,2] - u[1,2] + r[1,2] >= -1
 mccormick3[2,0]: - y[2,0] - u[2,0] + r[2,0] >= -1
 mccormick3[2,1]: - y[2,1] - u[2,1] + r[2,1] >= -1
Bounds
Binaries
 y[0,1] y[0,2] y[1,0] y[1,2] y[2,0] y[2,1] x[0,1] x[0,2] x[1,0] x[1,2]
 x[2,0] x[2,1] u[0,1] u[0,2] u[1,0] u[1,2] u[2,0] u[2,1] r[0,1] r[0,2]
 r[1,0] r[1,2] r[2,0] r[2,1]
End
