instances/shortest_path/discrete_knapsack_uncertainty/nohadani_3_20.kp
13172
97

[0.5511269133210572 4.0327753545659615 7.104168072143379 7.953276363283332 10.591638194630482 11.835269302611248]

[45 97 11 16 17 3]
